000 000 000 000 000 000 000 000 000 000 000 000 000 000 000 000 000 000 000 000 -99 000 000 000 000 000 000 000 -99 -99 -99
000 000 000 001 000 000 000 000 000 000 000 000 000 000 000 000 001 001 000 000 000 000 000 000 000 000 -99 000 -99 -99 -99
000 000 000 001 001 000 000 000 000 000 000 000 000 000 001 001 001 002 000 000 000 000 000 000 000 000 000 000 -99 -99 -99
000 001 001 002 001 000 000 000 000 000 001 001 001 001 001 001 001 001 000 000 000 -99 000 000 000 -99 000 000 -99 -99 -99
001 001 002 001 001 000 000 001 001 001 001 002 002 001 001 001 001 000 000 000 000 000 -99 000 -99 -99 -99 -99 -99 -99 -99
002 001 002 001 002 002 001 001 001 002 001 000 001 000 000 001 001 000 000 000 000 000 -99 -99 000 -99 -99 -99 -99 -99 -99
003 001 002 002 002 002 001 001 001 001 000 000 001 000 000 001 001 000 -99 000 000 000 -99 -99 000 -99 -99 -99 -99 -99 -99
002 002 002 002 001 001 001 000 000 000 000 000 000 001 001 001 000 000 000 000 000 000 000 -99 -99 -99 -99 -99 -99 -99 -99
001 001 001 002 001 000 000 000 000 000 000 000 000 001 001 000 001 000 000 000 000 000 -99 000 -99 -99 -99 -99 -99 -99 -99
001 001 001 001 000 000 000 000 000 000 000 000 000 000 000 000 000 000 000 000 000 -99 -99 -99 000 -99 -99 -99 -99 000 -99
001 001 000 000 000 000 000 000 000 000 000 000 000 000 000 000 000 000 000 000 000 -99 -99 -99 000 -99 -99 -99 -99 000 -99
000 000 000 000 000 000 000 000 000 000 000 000 000 000 000 000 000 000 -99 000 000 -99 -99 -99 000 -99 -99 -99 -99 000 000
000 000 000 000 000 000 000 000 000 000 000 000 000 000 000 000 000 -99 -99 -99 000 000 -99 -99 -99 000 -99 -99 -99 -99 000
000 000 000 000 000 000 000 000 -99 -99 000 000 000 000 000 000 000 000 -99 -99 000 000 -99 -99 -99 -99 -99 000 000 -99 -99
000 000 000 000 000 000 000 000 -99 -99 -99 000 000 000 000 000 000 000 000 000 000 000 -99 -99 -99 -99 000 000 000 -99 -99
000 000 000 000 000 000 000 000 -99 -99 -99 -99 000 000 000 000 000 000 000 000 -99 000 -99 -99 000 000 000 000 000 -99 -99
000 000 000 000 000 000 000 000 -99 -99 -99 -99 000 000 000 000 000 000 000 -99 -99 000 000 -99 000 000 000 000 000 -99 -99
000 000 000 000 -99 000 000 000 000 -99 -99 -99 -99 000 000 000 000 000 -99 -99 -99 -99 000 -99 000 000 000 -99 -99 -99 -99
000 000 000 000 -99 -99 -99 000 000 000 -99 -99 -99 000 000 000 000 000 000 000 000 000 000 -99 -99 000 -99 -99 -99 -99 -99
000 000 000 000 000 -99 -99 000 000 000 -99 -99 000 000 000 000 000 000 000 000 000 000 -99 -99 -99 -99 -99 -99 -99 -99 -99
000 000 000 000 000 000 -99 000 000 000 -99 -99 000 000 000 000 000 000 000 000 000 000 000 -99 -99 -99 -99 -99 -99 -99 -99
000 000 000 000 000 000 -99 000 000 000 -99 -99 000 000 000 000 000 000 000 000 000 000 000 -99 -99 -99 -99 -99 -99 -99 -99
000 000 000 000 000 000 -99 000 000 000 -99 -99 000 000 000 000 000 000 000 000 000 000 000 -99 -99 -99 -99 -99 -99 -99 -99
000 000 000 000 000 000 -99 000 000 000 -99 -99 000 000 000 000 000 000 000 000 000 000 000 -99 -99 -99 -99 -99 -99 -99 -99
000 000 000 000 000 000 000 000 000 000 -99 -99 000 000 -99 000 000 -99 000 000 000 000 000 -99 -99 -99 -99 -99 -99 -99 -99
000 000 000 000 000 000 000 000 000 000 -99 -99 -99 000 -99 000 000 000 000 000 000 000 -99 -99 -99 -99 -99 -99 -99 -99 -99
000 000 000 000 000 000 000 000 000 000 -99 -99 -99 000 -99 -99 000 000 000 000 000 000 -99 -99 -99 -99 -99 -99 -99 -99 -99
000 000 000 000 000 000 000 000 000 000 -99 -99 -99 000 -99 -99 000 000 000 000 000 000 -99 -99 -99 -99 -99 -99 -99 -99 -99
000 000 000 000 000 000 000 000 000 000 -99 -99 -99 -99 -99 000 000 000 000 000 000 000 -99 -99 -99 -99 -99 -99 -99 -99 -99
000 000 000 000 000 000 000 000 000 000 -99 -99 -99 000 000 000 000 000 000 -99 -99 000 -99 -99 -99 -99 -99 -99 -99 -99 -99
000 000 000 000 000 000 000 000 000 000 -99 -99 -99 000 000 -99 -99 000 000 001 -99 000 -99 -99 -99 -99 -99 -99 -99 -99 000
000 000 000 000 000 000 000 000 000 000 000 -99 -99 000 000 -99 000 000 000 -99 -99 000 000 000 004 001 -99 -99 -99 -99 000
000 000 000 000 000 000 000 000 000 000 000 -99 -99 000 000 -99 000 000 000 -99 -99 000 000 001 004 001 -99 001 001 000 001
000 000 000 000 000 000 000 000 000 000 -99 -99 -99 000 000 000 000 000 000 -99 -99 000 000 001 005 006 003 003 001 000 006
000 000 000 000 000 000 000 000 000 -99 -99 -99 000 000 000 000 000 000 000 000 000 000 000 002 006 004 004 004 001 000 012
000 001 000 000 000 000 000 000 000 000 -99 -99 000 000 000 000 000 -99 000 000 000 000 000 003 004 006 007 009 004 010 015
000 001 000 000 000 000 000 000 000 000 000 -99 000 000 000 000 000 000 000 000 000 000 000 001 001 002 013 019 020 019 046
001 001 000 000 000 000 000 000 000 -99 -99 -99 000 000 000 000 000 000 000 000 000 000 000 000 000 008 036 028 018 043 073
001 000 000 000 000 000 000 000 -99 -99 000 000 000 000 000 000 000 000 000 000 000 001 001 001 001 009 048 050 066 105 092
001 000 000 000 000 -99 000 000 -99 000 000 000 000 000 000 000 000 000 001 002 004 005 005 003 008 007 042 048 062 091 096
000 000 000 000 000 -99 -99 -99 -99 000 000 000 000 000 000 000 000 000 002 004 006 007 009 009 016 015 041 064 058 058 069
000 000 000 000 -99 000 000 000 000 000 001 000 000 000 000 001 002 004 002 005 006 010 017 015 012 019 072 062 090 069 072
000 000 000 -99 -99 000 000 000 000 000 000 000 001 001 002 003 005 008 002 007 006 013 019 022 017 019 042 039 044 078 073
000 000 000 -99 000 000 -99 -99 000 000 000 000 001 001 005 007 012 003 005 006 009 012 021 020 012 016 023 035 042 054 062
000 000 000 000 000 -99 -99 000 000 000 000 000 001 003 005 008 006 004 007 007 011 012 017 009 013 011 009 024 026 052 075
000 000 000 000 000 -99 -99 000 000 000 000 001 001 002 002 007 006 006 010 006 011 009 009 009 010 005 008 013 017 046 057
000 000 000 000 000 000 000 000 000 000 001 000 001 002 002 004 004 006 005 007 007 006 005 009 005 003 006 004 008 025 026
000 000 000 000 000 000 000 000 000 000 001 001 001 001 002 003 003 006 004 002 002 002 004 002 001 001 002 001 003 013 006
000 000 000 000 000 000 000 000 000 000 000 000 001 001 002 002 004 004 001 000 000 000 000 000 000 000 001 001 001 001 002
000 000 000 000 000 000 000 000 000 000 000 000 000 001 001 001 001 000 000 000 000 000 000 000 000 001 001 000 001 001 003
000 000 000 000 001 000 000 000 000 000 000 000 000 000 000 000 000 000 000 000 000 000 -99 000 -99 -99 -99 -99 001 -99 000
000 000 001 000 000 000 000 000 000 000 000 000 000 000 000 000 000 000 000 000 000 -99 -99 -99 001 -99 -99 -99 -99 -99 002
000 000 000 000 000 000 000 000 000 000 000 -99 -99 000 -99 -99 -99 000 000 000 000 -99 000 000 002 -99 -99 -99 -99 -99 003
000 001 000 000 000 000 000 000 000 000 000 000 -99 -99 -99 -99 -99 000 000 000 -99 000 001 003 002 001 -99 -99 -99 -99 -99
001 001 000 000 000 000 000 000 000 000 000 -99 -99 -99 -99 -99 -99 000 000 -99 -99 000 001 006 001 000 -99 -99 -99 -99 -99
